(set-logic ALL)
(set-option :produce-models true)
(declare-sort BoundSet 0)
(declare-sort UnboundSet 0)
(set-option :finite-model-find true)
(declare-fun IsInPicture (BoundSet) Bool)
(declare-fun IsBored (BoundSet) Bool)
(assert (not (=> (exists ((a BoundSet)) (IsInPicture a)) (exists ((d BoundSet)) (IsBored d)))))
(check-sat)
(get-model)